100 100 100
50
2 78 91
46 79 84
40 93 74
10 93 69
33 81 67
86 81 74
11 85 100
43 9 4
30 100 100
21 20 48
22 93 82
53 83 71
76 79 3
58 90 84
14 74 78
79 46 97
6 92 85
38 68 67
41 94 82
68 37 87
42 97 70
80 18 98
80 87 3
64 52 94
25 4 46
47 90 85
9 20 13
38 80 90
11 81 69
22 72 84
8 17 22
46 88 95
29 98 86
33 97 69
68 32 91
88 73 71
95 45 68
41 77 95
20 85 88
91 92 46
80 83 91
42 86 74
89 38 81
16 80 78
50 67 68
36 95 81
40 76 78
100 84 87
43 76 85
3 95 95
